This is Ipopt version 3.14.4, running with linear solver MUMPS 5.4.1.

Number of nonzeros in equality constraint Jacobian...:    19061
Number of nonzeros in inequality constraint Jacobian.:     9464
Number of nonzeros in Lagrangian Hessian.............:        0

Total number of variables............................:     6568
                     variables with only lower bounds:     1517
                variables with lower and upper bounds:        0
                     variables with only upper bounds:        0
Total number of equality constraints.................:     5217
Total number of inequality constraints...............:     1796
        inequality constraints with only lower bounds:        0
   inequality constraints with lower and upper bounds:        0
        inequality constraints with only upper bounds:     1796

iter    objective    inf_pr   inf_du lg(mu)  ||d||  lg(rg) alpha_du alpha_pr  ls
   0  4.6505579e+02 6.63e+00 2.94e+00   0.0 0.00e+00    -  0.00e+00 0.00e+00   0
   1  7.5253996e+02 6.19e+00 6.26e+00  -0.3 6.34e+00    -  3.63e-02 6.60e-02f  1
   2  1.4669867e+03 5.63e+00 2.18e+01   0.0 5.68e+00    -  2.85e-01 9.06e-02f  1
   3  2.6121733e+03 4.51e+00 2.29e+01   0.2 3.88e+00    -  2.31e-01 2.00e-01f  1
   4  2.3130201e+03 2.85e+00 1.63e+01  -0.2 2.59e+00    -  3.88e-01 3.66e-01f  1
   5  2.3821149e+03 1.66e+00 1.61e+01  -0.3 2.13e+00    -  4.71e-01 4.18e-01f  1
   6  2.5890276e+03 8.74e-01 9.93e+01  -0.3 1.87e+00    -  9.26e-01 4.74e-01h  1
   7  2.6331012e+03 1.54e-01 4.81e+01  -0.3 2.29e+00    -  9.13e-01 8.24e-01h  1
   8  2.2485790e+03 6.09e-02 4.35e+01  -0.4 2.89e+00    -  9.71e-01 9.90e-01h  1
   9  1.5047367e+03 2.87e-02 1.23e+03  -1.7 1.35e+00    -  5.49e-01 4.18e-01f  1
iter    objective    inf_pr   inf_du lg(mu)  ||d||  lg(rg) alpha_du alpha_pr  ls
  10  9.6947703e+02 2.13e-02 4.75e+01  -2.6 1.49e+00    -  3.50e-02 4.03e-01f  1
  11  2.0100629e+03 8.12e-02 5.98e+04  -0.3 1.97e+00    -  5.78e-01 6.79e-01f  1
  12  1.5712701e+03 1.29e-02 4.58e+05  -0.5 6.95e-01    -  5.85e-01 1.00e+00f  1
  13  2.3596639e+03 8.80e-03 8.91e+06  -0.3 5.30e-01    -  1.00e+00 8.36e-01f  1
  14  2.0866935e+03 1.54e-02 4.61e+06  -0.4 9.45e-01    -  6.17e-01 1.00e+00f  1
  15  3.8674378e+03 6.26e-02 7.19e+05  -0.1 1.12e+00    -  9.04e-01 9.33e-01f  1
  16  3.3726975e+03 3.61e-02 6.25e+05  -0.2 2.74e+00    -  6.69e-01 6.44e-01f  1
  17  2.7982480e+03 2.21e-02 1.78e+06  -0.2 7.94e-01    -  6.36e-01 1.00e+00f  1
  18  2.9317060e+03 4.59e-03 8.38e+00  -0.2 5.49e-01    -  1.00e+00 1.00e+00f  1
  19  1.5145851e+03 6.09e-02 2.59e+05  -0.5 1.01e+00    -  9.97e-01 9.91e-01f  1
iter    objective    inf_pr   inf_du lg(mu)  ||d||  lg(rg) alpha_du alpha_pr  ls
  20  1.4076579e+03 4.66e-02 1.57e+06  -0.6 1.48e+00    -  5.46e-01 2.58e-01f  1
  21  1.0145506e+03 2.32e-02 1.94e+06  -1.0 3.81e-01    -  6.46e-01 5.69e-01f  1
  22  8.7687536e+02 1.34e-02 4.18e+05  -0.9 9.17e-01    -  6.43e-01 6.96e-01h  1
  23  1.3868566e+03 1.81e-02 1.01e+06  -0.4 8.91e-01    -  4.41e-01 4.70e-01f  1
  24  1.3931846e+03 1.90e-02 8.30e+05  -0.7 2.53e+00    -  4.76e-01 4.18e-01h  1
  25  1.1623862e+03 8.80e-03 7.78e+05  -0.7 6.86e-01    -  6.48e-01 1.00e+00f  1
  26  1.8287363e+03 1.69e-02 2.29e+06  -0.4 5.73e-01    -  7.57e-01 9.03e-01f  1
  27  1.4846385e+03 1.08e-02 3.11e+06  -0.5 6.22e-01    -  4.58e-01 1.00e+00f  1
  28  1.4745391e+03 3.43e-03 1.57e+01  -0.5 2.85e-01    -  1.00e+00 9.19e-01h  1
  29  1.4114613e+03 9.14e-04 6.26e+04  -0.6 1.56e-01    -  7.86e-01 1.00e+00f  1
iter    objective    inf_pr   inf_du lg(mu)  ||d||  lg(rg) alpha_du alpha_pr  ls
  30  1.0125021e+03 5.29e-03 4.23e+00  -0.8 2.53e-01    -  1.00e+00 1.00e+00f  1
  31  1.0125820e+03 2.17e-03 4.83e+04  -0.8 1.03e+00    -  7.94e-01 9.31e-01H  1
  32  9.3921048e+02 1.22e-02 6.23e+04  -0.8 7.49e-01    -  8.39e-01 1.00e+00f  1
  33  8.0017804e+02 1.60e-03 3.33e+04  -0.9 1.27e-01    -  1.00e+00 9.91e-01f  1
  34  6.2841499e+02 5.26e-03 1.81e+06  -1.2 4.45e-01    -  1.00e+00 6.75e-01f  1
  35  8.2931193e+02 9.77e-03 2.95e+06  -0.7 5.64e-01    -  8.53e-01 5.05e-01f  1
  36  8.2416460e+02 6.16e-03 1.85e+06  -0.9 4.04e-01    -  4.66e-01 6.77e-01h  1
  37  7.6160444e+02 2.11e-03 2.54e+05  -0.9 1.83e-01    -  8.88e-01 1.00e+00f  1
  38  5.5977767e+02 6.26e-03 6.94e+00  -1.2 2.86e-01    -  1.00e+00 1.00e+00f  1
  39  5.1672063e+02 4.84e-03 1.42e+06  -1.3 5.87e-01    -  9.97e-01 3.01e-01f  1
iter    objective    inf_pr   inf_du lg(mu)  ||d||  lg(rg) alpha_du alpha_pr  ls
  40  6.9143343e+02 1.15e-02 2.83e+06  -1.0 6.33e-01    -  3.28e-01 7.67e-01f  1
  41  5.7670568e+02 4.35e-03 2.66e+05  -1.2 2.42e-01    -  1.00e+00 9.08e-01f  1
  42  5.2529201e+02 2.53e-03 4.14e+01  -1.2 2.28e-01    -  8.00e-02 1.00e+00f  1
  43  7.4613326e+02 1.25e-02 2.56e+04  -0.8 8.10e-01    -  5.69e-01 5.66e-01f  1
  44  6.6458065e+02 7.04e-03 7.59e+05  -1.0 5.06e-01    -  5.15e-01 8.56e-01f  1
  45  6.3390500e+02 2.18e-03 6.78e+04  -1.0 2.60e-01    -  8.70e-01 7.72e-01h  1
  46  6.2624143e+02 2.28e-03 1.27e+05  -1.0 2.11e-01    -  8.73e-02 1.00e+00f  1
  47  4.9251311e+02 1.86e-03 5.76e+00  -1.2 2.39e-01    -  1.00e+00 1.00e+00f  1
  48  7.1618983e+02 1.13e-02 1.32e+06  -0.9 6.79e-01    -  3.91e-01 5.67e-01f  1
  49  6.1112894e+02 7.50e-03 7.57e+05  -1.1 4.66e-01    -  1.00e+00 6.85e-01f  1
iter    objective    inf_pr   inf_du lg(mu)  ||d||  lg(rg) alpha_du alpha_pr  ls
  50  5.9689519e+02 5.32e-03 3.68e+05  -1.1 8.74e-01    -  4.29e-01 5.14e-01H  1
  51  5.5445355e+02 3.61e-03 3.03e+01  -1.1 2.26e-01    -  1.88e-01 1.00e+00f  1
  52  4.6949369e+02 2.44e-03 1.20e+06  -1.8 2.81e-01    -  5.70e-01 3.70e-01f  1
  53  4.9619049e+02 2.33e-03 4.30e+05  -1.4 5.90e-01    -  1.00e+00 5.74e-01H  1
  54  6.7578103e+02 7.55e-03 4.12e+06  -1.0 3.52e-01    -  2.83e-01 1.00e+00f  1
  55  6.1577374e+02 5.21e-03 2.30e+06  -1.2 1.06e+00    -  2.60e-01 4.56e-01H  1
  56  4.9667401e+02 1.89e-03 1.70e+05  -1.2 2.92e-01    -  2.49e-01 1.00e+00f  1
  57  5.1137935e+02 2.11e-03 6.09e+04  -1.2 4.82e-01    -  6.43e-01 5.42e-01h  1
  58  5.0256005e+02 3.78e-04 3.21e+04  -1.2 1.14e-01    -  4.73e-01 1.00e+00f  1
  59  4.6460271e+02 6.20e-04 2.52e+00  -1.3 1.30e-01    -  1.00e+00 1.00e+00f  1
iter    objective    inf_pr   inf_du lg(mu)  ||d||  lg(rg) alpha_du alpha_pr  ls
  60  4.1335813e+02 4.82e-04 2.51e+05  -1.4 9.96e-02    -  7.93e-01 1.00e+00f  1
  61  3.7878441e+02 1.14e-03 5.39e+05  -1.5 3.16e-01    -  1.00e+00 5.59e-01f  1
  62  5.0240582e+02 4.88e-03 7.49e+05  -1.2 3.95e-01    -  7.48e-01 1.00e+00f  1
  63  4.4685108e+02 2.35e-03 9.79e+03  -1.3 2.93e-01    -  9.85e-01 1.00e+00f  1
  64  4.1561509e+02 9.81e-04 7.24e+00  -1.3 2.00e-01    -  1.00e+00 1.00e+00f  1
  65  3.5956213e+02 8.76e-03 1.30e+06  -2.0 8.20e-01    -  1.12e-01 4.71e-01f  1
  66  4.9541552e+02 9.99e-03 1.07e+06  -1.1 6.39e-01    -  2.22e-01 6.48e-01f  1
  67  5.5311606e+02 5.01e-03 4.42e+05  -1.4 1.69e+00    -  2.15e-01 4.67e-01H  1
  68  4.1081359e+02 9.30e-03 6.22e+04  -1.4 6.04e-01    -  8.45e-01 1.00e+00f  1
  69  4.1873429e+02 4.01e-03 4.68e+04  -1.4 3.09e-01    -  2.47e-01 5.22e-01h  1
iter    objective    inf_pr   inf_du lg(mu)  ||d||  lg(rg) alpha_du alpha_pr  ls
  70  4.1012432e+02 2.91e-04 6.11e+03  -1.4 1.00e-01    -  8.69e-01 1.00e+00f  1
  71  3.4867199e+02 5.10e-04 6.75e+05  -1.7 1.47e-01    -  1.00e+00 7.08e-01f  1
  72  3.0931112e+02 1.61e-04 2.22e+02  -1.7 3.13e-01    -  9.91e-01 1.00e+00H  1
  73  4.1074823e+02 8.60e-03 1.55e+01  -1.4 4.14e-01    -  1.00e+00 1.00e+00f  1
  74  3.7896053e+02 3.40e-03 3.67e+05  -1.5 3.46e-01    -  8.45e-02 6.07e-01f  1
  75  3.4844609e+02 1.69e-03 4.78e+05  -1.5 2.15e-01    -  2.57e-01 1.00e+00f  1
  76  3.4460495e+02 6.07e-04 7.98e+04  -1.5 1.73e-01    -  8.33e-01 1.00e+00f  1
  77  3.4978472e+02 7.89e-04 2.46e+04  -1.5 1.24e-01    -  6.92e-01 1.00e+00f  1
  78  3.5055953e+02 6.00e-04 3.64e+00  -1.5 1.12e-01    -  1.00e+00 1.00e+00h  1
  79  3.0740127e+02 3.40e-04 5.06e+05  -2.3 1.57e-01    -  6.85e-01 4.79e-01f  1
iter    objective    inf_pr   inf_du lg(mu)  ||d||  lg(rg) alpha_du alpha_pr  ls
  80  3.5260750e+02 1.05e-03 2.65e+05  -1.5 2.14e-01    -  6.38e-01 6.86e-01f  1
  81  3.1969193e+02 3.67e-04 2.24e+00  -1.6 8.34e-02    -  1.00e+00 1.00e+00f  1
  82  2.8747583e+02 4.65e-04 2.47e+05  -2.5 1.50e-01    -  6.02e-01 4.74e-01f  1
  83  2.7680679e+02 2.10e-04 3.15e+00  -1.9 1.02e-01    -  1.00e+00 1.00e+00f  1
  84  3.2546455e+02 2.10e-03 2.18e+05  -1.7 2.22e-01    -  7.69e-01 1.00e+00f  1
  85  3.0363876e+02 8.75e-04 8.14e+04  -1.8 1.98e-01    -  5.12e-01 8.85e-01f  1
  86  2.9077880e+02 1.09e-03 7.98e+04  -1.8 1.65e-01    -  4.28e-01 1.00e+00f  1
  87  2.8796915e+02 4.51e-04 5.29e+04  -1.8 1.08e-01    -  3.37e-01 7.13e-01f  1
  88  2.8835076e+02 1.10e-04 1.03e+00  -1.8 6.07e-02    -  1.00e+00 1.00e+00f  1
  89  2.6055585e+02 5.12e-04 1.16e+04  -2.0 1.73e-01    -  9.90e-01 9.72e-01f  1
iter    objective    inf_pr   inf_du lg(mu)  ||d||  lg(rg) alpha_du alpha_pr  ls
  90  2.7358240e+02 7.67e-04 1.87e+05  -1.7 5.75e-01    -  6.73e-01 4.42e-01f  1
  91  2.7013025e+02 7.33e-04 9.57e+04  -1.9 7.72e-01    -  1.00e+00 5.75e-01H  1
  92  3.2018039e+02 2.33e-03 1.95e+05  -1.3 9.70e-01    -  2.12e-01 2.42e-01f  1
  93  2.9768646e+02 2.07e-03 3.28e+04  -1.8 2.71e-01    -  3.04e-01 6.34e-01f  1
  94  2.8862548e+02 1.05e-03 4.72e+04  -1.8 3.27e-01    -  4.45e-01 6.00e-01f  1
  95  2.8143395e+02 3.31e-04 3.01e+00  -1.8 1.59e-01    -  1.00e+00 1.00e+00f  1
  96  2.7356353e+02 3.60e-04 2.42e+05  -1.9 4.21e-01    -  1.00e+00 4.27e-01f  2
  97  3.2975183e+02 3.89e-03 4.87e+05  -1.5 4.58e-01    -  8.64e-01 5.57e-01f  1
  98  3.1091313e+02 1.54e-03 1.41e+05  -1.7 3.25e-01    -  8.11e-01 9.74e-01f  1
  99  3.0398840e+02 1.91e-03 1.35e+05  -1.7 3.04e-01    -  9.45e-02 9.96e-01f  1
iter    objective    inf_pr   inf_du lg(mu)  ||d||  lg(rg) alpha_du alpha_pr  ls
 100  3.0154251e+02 2.20e-03 6.99e+04  -1.7 3.19e-01    -  4.82e-01 1.00e+00f  1
 101  3.0434412e+02 6.92e-04 2.65e+04  -1.7 1.39e-01    -  6.21e-01 1.00e+00f  1
 102  3.0183794e+02 4.43e-04 2.04e+00  -1.7 1.49e-01    -  1.00e+00 1.00e+00f  1
 103  2.6325063e+02 1.23e-03 4.12e+05  -2.5 2.71e-01    -  3.40e-01 5.62e-01f  1
 104  2.5315985e+02 1.19e-03 3.70e+05  -2.5 4.10e-01    -  3.37e-01 4.55e-01f  1
 105  3.0607381e+02 4.46e-03 4.74e+05  -1.7 2.99e-01    -  5.50e-01 1.00e+00f  1
 106  3.0521205e+02 3.07e-03 2.31e+05  -1.8 3.58e-01    -  1.13e-01 4.35e-01h  1
 107  2.7844559e+02 5.47e-04 1.26e+00  -1.8 8.93e-02    -  1.00e+00 1.00e+00f  1
 108  2.5110201e+02 4.53e-04 5.79e+04  -2.7 1.79e-01    -  5.01e-01 5.43e-01f  1
 109  2.4507573e+02 4.09e-04 1.06e+05  -2.2 2.95e-01    -  1.00e+00 4.90e-01f  1
iter    objective    inf_pr   inf_du lg(mu)  ||d||  lg(rg) alpha_du alpha_pr  ls
 110  2.3518740e+02 5.71e-04 2.10e+05  -2.8 3.94e-01    -  5.87e-01 3.05e-01f  1
 111  2.5011051e+02 6.35e-04 7.37e+04  -2.1 3.57e-01    -  5.90e-01 5.48e-01H  1
 112  2.5469697e+02 7.21e-04 2.01e+03  -1.9 2.30e-01    -  6.83e-01 6.34e-01f  1
 113  2.5355608e+02 6.98e-04 6.97e+04  -2.1 2.12e-01    -  6.55e-01 3.09e-01h  1
 114  2.4318990e+02 1.57e-04 6.32e+04  -2.1 7.11e-02    -  1.08e-01 1.00e+00f  1
 115  2.6698240e+02 4.67e-04 1.47e+05  -1.8 2.04e-01    -  1.00e+00 7.86e-01f  1
 116  2.6384621e+02 7.23e-04 3.62e+04  -1.9 1.42e-01    -  7.84e-01 8.09e-01h  1
 117  2.5830759e+02 1.52e-03 3.03e+00  -1.9 1.19e-01    -  1.00e+00 1.00e+00f  1
 118  2.5788359e+02 7.48e-04 4.26e+00  -1.9 1.49e-01    -  9.42e-01 6.49e-01f  1
 119  2.5933372e+02 1.06e-04 3.79e+00  -1.9 4.12e-02    -  9.93e-01 9.55e-01f  1
iter    objective    inf_pr   inf_du lg(mu)  ||d||  lg(rg) alpha_du alpha_pr  ls
 120  2.4098972e+02 5.81e-04 1.59e+03  -2.1 1.31e-01    -  9.96e-01 1.00e+00f  1
 121  2.4039603e+02 4.75e-04 2.28e+04  -2.1 1.19e-01    -  1.00e+00 1.50e-01f  3
 122  2.2941120e+02 9.77e-05 9.45e+04  -2.4 6.39e-02    -  1.00e+00 7.63e-01f  1
 123  2.2542641e+02 1.22e-04 1.10e+05  -2.5 1.56e-01    -  9.20e-01 3.28e-01f  2
 124  2.3985977e+02 7.19e-04 1.40e+05  -2.1 1.75e-01    -  6.52e-01 1.00e+00f  1
 125  2.2856836e+02 4.07e-04 4.19e+03  -2.3 1.02e-01    -  9.17e-01 9.97e-01f  1
 126  2.2791104e+02 1.94e-04 3.47e+02  -2.3 2.49e-02    -  1.00e+00 5.00e-01f  2
 127  2.2227316e+02 1.27e-04 1.59e+05  -2.6 8.57e-02    -  1.00e+00 4.58e-01f  1
 128  2.4846384e+02 1.29e-03 2.38e+05  -1.9 4.35e-01    -  7.82e-01 4.27e-01f  1
 129  2.3545460e+02 8.51e-04 2.49e+04  -2.2 1.63e-01    -  9.09e-01 1.00e+00f  1
iter    objective    inf_pr   inf_du lg(mu)  ||d||  lg(rg) alpha_du alpha_pr  ls
 130  2.4099942e+02 2.50e-05 9.45e+03  -2.2 1.87e-01    -  6.20e-01 1.00e+00H  1
 131  2.2633930e+02 2.09e-04 9.51e+04  -2.5 1.34e-01    -  7.52e-01 5.13e-01f  1
 132  2.2485236e+02 1.73e-04 8.53e+04  -2.5 1.86e-01    -  3.88e-01 1.92e-01f  2
 133  2.1908149e+02 5.62e-05 1.63e+00  -2.5 3.30e-02    -  1.00e+00 1.00e+00f  1
 134  2.1374175e+02 8.46e-05 6.20e+04  -3.4 8.84e-02    -  6.57e-01 4.57e-01f  1
 135  2.1182284e+02 6.22e-05 7.37e+04  -3.0 7.44e-02    -  1.00e+00 3.11e-01f  1
 136  2.0879917e+02 1.26e-04 3.59e+04  -3.2 7.68e-02    -  9.50e-01 6.29e-01f  1
 137  2.0781117e+02 5.00e-05 1.51e+04  -3.2 5.71e-02    -  1.00e+00 5.96e-01f  1
 138  2.0970336e+02 7.02e-05 2.41e+03  -2.9 3.34e-02    -  9.65e-01 1.00e+00f  1
 139  2.0657124e+02 4.89e-05 2.22e+04  -3.3 4.30e-02    -  1.00e+00 7.61e-01f  1
iter    objective    inf_pr   inf_du lg(mu)  ||d||  lg(rg) alpha_du alpha_pr  ls
 140  2.0622375e+02 7.73e-05 4.90e+03  -3.2 7.92e-02    -  1.00e+00 4.61e-01f  1
 141  2.0578476e+02 7.28e-05 1.96e+04  -3.4 1.08e-01    -  1.00e+00 3.05e-01f  2
 142  2.0756128e+02 3.58e-05 1.40e+04  -3.0 6.57e-02    -  5.49e-01 6.45e-01F  1
 143  2.0530055e+02 4.03e-05 1.52e+04  -3.4 2.63e-02    -  1.00e+00 7.11e-01f  1
 144  2.0449823e+02 3.58e-05 5.63e+03  -3.5 2.58e-02    -  1.00e+00 7.51e-01f  1
 145  2.0385990e+02 1.66e-05 4.29e+03  -3.7 2.37e-02    -  1.00e+00 6.84e-01f  1
 146  2.0379088e+02 1.71e-05 2.14e+03  -3.6 3.50e-02    -  8.60e-01 1.88e-01f  2
 147  2.0315396e+02 8.09e-06 3.10e+03  -4.0 1.86e-02    -  1.00e+00 8.05e-01f  1
 148  2.0315007e+02 1.69e-05 6.98e+03  -3.7 1.45e-01    -  1.00e+00 1.36e-01f  3
 149  2.0415459e+02 5.17e-05 3.05e+04  -3.3 1.26e-01    -  1.00e+00 2.68e-01f  2
iter    objective    inf_pr   inf_du lg(mu)  ||d||  lg(rg) alpha_du alpha_pr  ls
 150  2.0380452e+02 5.39e-05 1.68e+03  -3.5 2.95e-02    -  9.30e-01 1.00e+00f  1
 151  2.0378530e+02 2.80e-05 3.56e+02  -3.5 3.58e-02    -  7.88e-01 5.00e-01f  2
 152  2.0357956e+02 2.85e-06 5.43e-01  -3.5 7.29e-03    -  1.00e+00 1.00e+00f  1
 153  2.0303287e+02 1.54e-06 9.47e+03  -4.0 1.67e-02    -  1.00e+00 5.67e-01f  1
 154  2.0306891e+02 1.84e-05 4.66e+02  -3.6 1.79e-01    -  6.36e-01 1.12e-01f  1
 155  2.0290949e+02 2.02e-05 2.44e+03  -3.8 5.43e-02    -  1.00e+00 3.30e-01f  2
 156  2.0304009e+02 3.65e-05 1.01e+04  -3.5 1.09e-01    -  1.00e+00 2.88e-01f  1
 157  2.0295635e+02 3.08e-05 6.42e+03  -3.7 1.29e-01    -  3.43e-01 1.18e-01f  2
 158  2.0285456e+02 2.08e-05 2.21e+03  -3.7 4.93e-02    -  6.16e-01 3.14e-01f  2
 159  2.0248748e+02 3.99e-05 5.60e+03  -4.0 4.94e-02    -  1.00e+00 5.63e-01f  1
iter    objective    inf_pr   inf_du lg(mu)  ||d||  lg(rg) alpha_du alpha_pr  ls
 160  2.0245700e+02 3.53e-05 6.89e+03  -3.6 4.29e-02    -  1.00e+00 1.43e-01f  1
 161  2.0232442e+02 2.72e-05 4.74e+02  -3.8 4.31e-02    -  1.00e+00 4.60e-01f  1
 162  2.0348464e+02 5.65e-05 2.56e+02  -3.3 5.03e-02    -  7.02e-01 7.06e-01f  1
 163  2.0335604e+02 4.51e-05 5.69e+03  -3.5 5.81e-02    -  9.38e-01 1.75e-01f  1
 164  2.0307381e+02 2.23e-05 2.96e+03  -3.5 2.35e-02    -  5.53e-01 4.84e-01f  2
 165  2.0293186e+02 1.70e-05 1.71e+03  -3.5 1.71e-02    -  6.41e-01 4.38e-01f  2
 166  2.0284280e+02 8.04e-06 5.05e+02  -3.5 1.87e-02    -  1.00e+00 7.16e-01f  1
 167  2.0225874e+02 3.60e-06 7.57e+03  -3.9 2.51e-02    -  1.00e+00 6.25e-01f  1
 168  2.0211769e+02 1.21e-05 6.50e+03  -4.0 1.80e-01    -  2.37e-01 1.65e-01f  1
 169  2.0304311e+02 2.50e-05 5.14e+03  -3.2 7.13e-02    -  6.00e-01 4.42e-01f  1
iter    objective    inf_pr   inf_du lg(mu)  ||d||  lg(rg) alpha_du alpha_pr  ls
 170  2.0283506e+02 2.13e-05 7.41e+03  -3.5 1.45e-01    -  2.29e-02 4.65e-01F  1
 171  2.0271064e+02 1.90e-05 6.52e+03  -3.5 8.47e-01    -  9.55e-02 3.18e-02f  1
 172  2.0265610e+02 1.47e-05 3.82e+03  -3.5 9.09e-01    -  3.06e-01 5.38e-02f  3
 173  2.0253292e+02 1.37e-05 2.90e+03  -3.5 2.41e-01    -  1.84e-01 1.01e-01f  1
 174  2.0233132e+02 1.79e-05 5.81e+02  -3.5 3.01e-01    -  7.79e-01 2.67e-01f  1
 175  2.0218103e+02 6.20e-05 3.08e+02  -3.5 9.15e-02    -  6.23e-01 5.72e-01f  1
 176  2.0205891e+02 1.85e-05 4.37e+01  -3.5 2.06e-02    -  9.00e-01 1.00e+00f  1
 177  2.0157709e+02 1.08e-05 1.01e+00  -3.6 2.70e-02    -  1.00e+00 1.00e+00f  1
 178  2.0117458e+02 5.94e-06 2.31e+03  -3.8 1.73e-02    -  9.48e-01 7.35e-01f  1
 179  2.0096390e+02 2.94e-06 3.75e+03  -4.0 3.12e-02    -  1.00e+00 5.08e-01f  1
iter    objective    inf_pr   inf_du lg(mu)  ||d||  lg(rg) alpha_du alpha_pr  ls
 180  2.0104310e+02 5.75e-06 4.76e+03  -3.7 3.93e-02    -  1.00e+00 3.69e-01f  2
 181  2.0092270e+02 3.32e-06 3.10e-01  -3.8 1.96e-02    -  1.00e+00 1.00e+00f  1
 182  2.0157966e+02 1.25e-05 1.12e+00  -3.6 2.35e-02    -  1.00e+00 1.00e+00f  1
 183  2.0120119e+02 7.88e-06 5.62e-01  -3.6 1.38e-02    -  1.00e+00 1.00e+00f  1
 184  2.0119147e+02 2.32e-06 2.96e-01  -3.6 9.71e-03    -  1.00e+00 1.00e+00h  1
 185  2.0062348e+02 4.97e-06 5.40e-01  -4.0 2.75e-02    -  1.00e+00 1.00e+00f  1
 186  2.0082609e+02 1.26e-05 9.62e+03  -3.6 1.11e-01    -  1.00e+00 2.81e-01f  2
 187  2.0086673e+02 7.34e-06 6.61e-01  -3.8 8.77e-03    -  1.00e+00 1.00e+00f  1
 188  2.0079992e+02 3.41e-06 3.51e-01  -3.8 1.46e-02    -  1.00e+00 1.00e+00f  1
 189  2.0068902e+02 1.68e-06 2.44e+03  -4.0 1.14e-02    -  1.00e+00 5.00e-01f  2
iter    objective    inf_pr   inf_du lg(mu)  ||d||  lg(rg) alpha_du alpha_pr  ls
 190  2.0057114e+02 1.03e-06 1.17e-01  -4.0 1.16e-02    -  1.00e+00 1.00e+00f  1
 191  2.0056091e+02 2.90e-06 2.89e-01  -4.0 1.03e-02    -  1.00e+00 1.00e+00h  1
 192  2.0055381e+02 1.55e-06 4.91e+00  -4.0 1.64e-02    -  1.00e+00 5.00e-01h  2
 193  2.0055182e+02 2.73e-06 3.26e+00  -4.0 5.28e-02    -  1.00e+00 2.02e-01f  3
 194  2.0055102e+02 2.25e-06 3.38e+00  -4.0 1.17e-02    -  1.00e+00 2.50e-01h  3
 195  2.0054174e+02 5.00e-07 1.73e-01  -4.0 3.25e-03    -  1.00e+00 1.00e+00h  1
 196  2.0053659e+02 2.14e-07 9.68e-02  -4.0 1.67e-03    -  1.00e+00 1.00e+00h  1
 197  2.0053703e+02 9.56e-08 7.86e-02  -4.0 2.40e-03    -  1.00e+00 1.00e+00h  1
 198  2.0053552e+02 2.66e-07 1.34e+00  -4.0 1.65e-02    -  1.00e+00 2.50e-01h  3
 199  2.0053172e+02 2.23e-06 2.32e+00  -4.0 4.78e-02    -  1.00e+00 2.50e-01f  3
iter    objective    inf_pr   inf_du lg(mu)  ||d||  lg(rg) alpha_du alpha_pr  ls
 200  2.0052920e+02 2.09e-06 2.87e+00  -4.0 4.10e-02    -  1.00e+00 1.25e-01f  4
 201  2.0052722e+02 1.25e-06 1.04e+00  -4.0 9.85e-03    -  1.00e+00 2.50e-01h  3
 202  2.0052415e+02 1.11e-06 1.66e-01  -4.0 4.90e-03    -  1.00e+00 1.00e+00h  1
 203  2.0051975e+02 7.76e-07 4.93e-02  -4.0 6.49e-03    -  1.00e+00 1.00e+00h  1
 204  2.0064633e+02 1.46e-08 9.05e-01  -4.0 8.70e-03    -  1.00e+00 1.00e+00H  1
 205  2.0043133e+02 3.06e-06 5.45e-02  -4.1 7.89e-03    -  1.00e+00 1.00e+00f  1
 206  2.0051042e+02 8.32e-08 4.03e-02  -4.0 1.54e-03    -  1.00e+00 1.00e+00h  1
 207  2.0051084e+02 3.23e-07 1.88e+00  -4.0 1.46e-02    -  1.00e+00 2.50e-01h  3
 208  2.0050146e+02 2.78e-07 1.54e+03  -4.1 7.09e-02    -  8.35e-01 8.65e-02f  4
 209  2.0050117e+02 7.20e-07 1.56e+02  -4.0 8.99e-02    -  1.00e+00 1.25e-01f  4
iter    objective    inf_pr   inf_du lg(mu)  ||d||  lg(rg) alpha_du alpha_pr  ls
 210  2.0050063e+02 7.34e-07 1.51e+02  -4.0 9.43e-02    -  1.00e+00 3.12e-02h  6
 211  2.0052694e+02 3.14e-08 3.75e-01  -4.0 2.01e-02    -  1.00e+00 1.00e+00H  1
 212  2.0052136e+02 3.53e-06 1.85e+00  -4.0 3.81e-02    -  1.00e+00 2.50e-01f  3
 213  2.0049818e+02 2.66e-06 1.56e+03  -4.1 1.78e-02    -  1.00e+00 2.12e-01f  3
 214  2.0083710e+02 1.04e-05 5.98e-01  -3.8 2.39e-02    -  1.00e+00 1.00e+00f  1
 215  2.0071555e+02 1.50e-05 6.92e-01  -3.9 1.95e-02    -  1.00e+00 1.00e+00f  1
 216  2.0068245e+02 8.79e-06 3.40e+00  -3.9 2.82e-02    -  9.12e-01 5.00e-01f  2
 217  2.0065206e+02 1.75e-05 4.03e+00  -3.9 9.33e-02    -  6.53e-01 2.04e-01f  1
 218  2.0064568e+02 1.29e-05 2.97e+00  -3.9 1.44e-02    -  2.58e-01 2.50e-01f  3
 219  2.0063986e+02 3.39e-06 1.94e-01  -3.9 1.19e-02    -  1.00e+00 1.00e+00h  1
iter    objective    inf_pr   inf_du lg(mu)  ||d||  lg(rg) alpha_du alpha_pr  ls
 220  2.0063774e+02 2.97e-06 2.21e+00  -3.9 1.97e-02    -  1.00e+00 1.25e-01h  4
 221  2.0063649e+02 5.17e-07 1.43e-01  -3.9 2.34e-03    -  1.00e+00 1.00e+00h  1
 222  2.0063457e+02 5.30e-07 1.26e-01  -3.9 4.02e-03    -  1.00e+00 1.00e+00h  1
 223  2.0067395e+02 9.18e-10 1.26e-01  -3.9 4.98e-03    -  1.00e+00 1.00e+00H  1
 224  2.0051525e+02 1.27e-06 5.41e-02  -4.0 4.42e-03    -  1.00e+00 1.00e+00f  1
 225  2.0042981e+02 3.48e-08 5.42e-02  -4.1 8.75e-04    -  1.00e+00 1.00e+00h  1
 226  2.0050100e+02 2.69e-08 3.84e-02  -4.0 8.48e-04    -  1.00e+00 1.00e+00f  1
 227  2.0049754e+02 4.09e-08 3.09e-02  -4.0 7.39e-04    -  1.00e+00 1.00e+00h  1
 228  2.0049537e+02 8.58e-08 7.01e-02  -4.0 1.88e-03    -  1.00e+00 1.00e+00h  1
 229  2.0049801e+02 3.21e-10 4.91e-02  -4.0 5.27e-03    -  1.00e+00 1.00e+00H  1
iter    objective    inf_pr   inf_du lg(mu)  ||d||  lg(rg) alpha_du alpha_pr  ls
 230  2.0049513e+02 2.35e-07 1.95e-01  -4.0 3.81e-03    -  1.00e+00 1.00e+00f  1
 231  2.0040088e+02 2.98e-07 7.54e-02  -4.1 2.96e-03    -  1.00e+00 1.00e+00f  1
 232  2.0049450e+02 1.93e-07 1.47e-01  -4.0 2.55e-03    -  1.00e+00 1.00e+00f  1
 233  2.0040165e+02 1.03e-07 2.71e-02  -4.1 1.34e-03    -  1.00e+00 1.00e+00f  1
 234  2.0048758e+02 2.41e-08 2.94e-02  -4.0 1.21e-03    -  1.00e+00 1.00e+00f  1
 235  2.0049099e+02 2.16e-08 3.19e-02  -4.0 7.52e-04    -  1.00e+00 1.00e+00h  1
 236  2.0049716e+02 7.92e-10 2.59e-02  -4.0 7.51e-03    -  1.00e+00 1.00e+00H  1
 237  2.0049639e+02 3.78e-08 1.93e+00  -4.0 9.19e-03    -  1.00e+00 1.25e-01f  4
 238  2.0040274e+02 3.71e-07 1.42e-01  -4.1 4.22e-03    -  1.00e+00 1.00e+00f  1
 239  2.0041474e+02 1.69e-09 8.26e-02  -4.1 6.31e-03    -  1.00e+00 1.00e+00H  1
iter    objective    inf_pr   inf_du lg(mu)  ||d||  lg(rg) alpha_du alpha_pr  ls
 240  2.0049287e+02 1.56e-06 5.42e-02  -4.0 8.10e-03    -  1.00e+00 1.00e+00f  1
 241  2.0041431e+02 6.33e-07 2.33e-01  -4.1 4.60e-03    -  1.00e+00 1.00e+00h  1
 242  2.0040004e+02 6.56e-07 5.98e-02  -4.1 4.73e-03    -  1.00e+00 1.00e+00f  1
 243  2.0049767e+02 3.62e-07 1.47e-01  -4.0 2.26e-03    -  1.00e+00 1.00e+00f  1
 244  2.0040090e+02 2.39e-07 1.29e-02  -4.1 1.83e-03    -  1.00e+00 1.00e+00f  1
 245  2.0039913e+02 1.09e-09 2.28e-03  -4.1 1.46e-04    -  1.00e+00 1.00e+00h  1
 246  2.0049440e+02 4.89e-07 1.47e-01  -4.0 4.05e-03    -  1.00e+00 1.00e+00f  1
 247  2.0040027e+02 1.01e-06 1.37e-01  -4.1 7.32e-03    -  1.00e+00 1.00e+00f  1
 248  2.0039903e+02 9.49e-07 1.32e+01  -4.1 2.78e-02    -  1.00e+00 8.41e-02h  4
 249  2.0048845e+02 8.96e-07 8.17e+01  -4.0 5.44e-03    -  9.59e-01 1.00e+00f  1
iter    objective    inf_pr   inf_du lg(mu)  ||d||  lg(rg) alpha_du alpha_pr  ls
 250  2.0046847e+02 1.06e-06 1.04e+03  -4.1 1.26e-02    -  7.54e-01 2.50e-01f  3
 251  2.0039547e+02 9.97e-07 1.50e-01  -4.1 6.11e-03    -  1.00e+00 1.00e+00h  1
 252  2.0040738e+02 7.14e-07 1.77e+03  -4.0 1.75e-02    -  1.00e+00 1.25e-01f  4
 253  2.0036148e+02 4.66e-07 1.16e-01  -4.1 2.54e-03    -  1.00e+00 1.00e+00h  1
 254  2.0048544e+02 5.69e-07 9.12e-02  -4.0 3.49e-03    -  1.00e+00 1.00e+00f  1
 255  2.0044625e+02 1.24e-06 9.90e+02  -4.1 6.47e-03    -  1.00e+00 5.00e-01f  2
 256  2.0039517e+02 9.00e-07 8.10e-02  -4.1 3.64e-03    -  1.00e+00 1.00e+00h  1
 257  2.0039449e+02 8.85e-07 3.43e+00  -4.1 1.38e-02    -  1.00e+00 1.25e-01h  4
 258  2.0039337e+02 1.51e-07 3.17e-02  -4.1 1.21e-03    -  1.00e+00 1.00e+00h  1
 259  2.0048570e+02 9.24e-08 6.17e-02  -4.0 1.39e-03    -  1.00e+00 1.00e+00f  1
iter    objective    inf_pr   inf_du lg(mu)  ||d||  lg(rg) alpha_du alpha_pr  ls
 260  2.0039778e+02 1.73e-07 1.43e-01  -4.1 2.05e-03    -  1.00e+00 1.00e+00f  1
 261  2.0039163e+02 1.32e-07 3.59e-02  -4.1 1.80e-03    -  1.00e+00 1.00e+00h  1
 262  2.0048438e+02 5.78e-08 2.71e-02  -4.0 1.42e-03    -  1.00e+00 1.00e+00f  1
 263  2.0039496e+02 1.65e-07 1.36e-01  -4.1 3.08e-03    -  1.00e+00 1.00e+00f  1
 264  2.0039455e+02 1.79e-07 1.24e-01  -4.1 2.37e-03    -  1.00e+00 1.00e+00h  1
 265  2.0039777e+02 6.92e-07 1.17e-01  -4.1 3.22e-03    -  1.00e+00 1.00e+00h  1
 266  2.0039141e+02 1.04e-07 8.19e-02  -4.1 1.50e-03    -  1.00e+00 1.00e+00h  1
 267  2.0048449e+02 1.23e-07 3.67e-02  -4.0 1.57e-03    -  1.00e+00 1.00e+00f  1
 268  2.0039187e+02 5.11e-08 4.41e-02  -4.1 1.71e-03    -  1.00e+00 1.00e+00f  1
 269  2.0049313e+02 4.98e-07 2.77e-01  -4.0 3.55e-03    -  1.00e+00 1.00e+00f  1
iter    objective    inf_pr   inf_du lg(mu)  ||d||  lg(rg) alpha_du alpha_pr  ls
 270  2.0039065e+02 2.32e-07 6.57e-02  -4.1 2.81e-03    -  1.00e+00 1.00e+00f  1
 271  2.0038993e+02 1.34e-07 4.59e-02  -4.1 1.45e-03    -  1.00e+00 1.00e+00h  1
 272  2.0048480e+02 1.09e-07 6.34e-02  -4.0 1.45e-03    -  1.00e+00 1.00e+00f  1
 273  2.0039290e+02 3.28e-07 1.58e-01  -4.1 7.13e-03    -  1.00e+00 1.00e+00f  1
 274  2.0039061e+02 4.31e-07 4.05e+00  -4.1 5.24e-02    -  1.00e+00 1.25e-01h  4
 275  2.0038988e+02 4.57e-07 2.86e+00  -4.1 5.58e-02    -  1.00e+00 6.25e-02h  5
 276  2.0038775e+02 5.91e-07 3.20e+00  -4.1 4.37e-02    -  1.00e+00 1.25e-01h  4
 277  2.0038668e+02 6.28e-07 2.36e+00  -4.1 1.52e-01    -  1.00e+00 3.12e-02h  6
 278  2.0038513e+02 5.51e-07 9.59e+00  -4.1 8.26e-02    -  1.00e+00 5.28e-02h  4
 279  2.0038310e+02 7.76e-07 4.57e+00  -4.1 1.97e-01    -  1.00e+00 6.25e-02h  5
iter    objective    inf_pr   inf_du lg(mu)  ||d||  lg(rg) alpha_du alpha_pr  ls
 280  2.0038215e+02 1.01e-06 6.46e+00  -4.1 1.47e+00    -  1.21e-01 1.96e-02f  5
 281  2.0038155e+02 9.07e-07 9.39e+00  -4.1 1.89e+00    -  2.74e-01 4.36e-03f  7
 282  2.0038138e+02 9.50e-07 6.89e+00  -4.1 5.07e-01    -  1.00e+00 1.68e-02h  6
 283  2.0038080e+02 9.80e-07 1.05e+01  -4.1 3.85e-01    -  6.34e-01 2.35e-02h  6
 284  2.0629298e+02 5.73e-04 7.16e+00  -4.1 3.02e-01    -  1.00e+00 1.00e+00w  1
 285  2.0117331e+02 4.06e-04 8.14e+00  -4.1 9.42e-02    -  3.30e-01 1.00e+00w  1
 286  2.0088860e+02 3.89e-04 2.02e+01  -4.1 7.08e-01    -  1.30e-01 4.28e-02w  1
 287  2.0038019e+02 1.09e-06 4.74e+00  -4.1 2.27e+00    -  1.00e+00 1.56e-02h  6
 288  2.0037983e+02 1.09e-06 4.60e+00  -4.1 8.08e-02    -  4.23e-01 8.02e-03h  7
 289  2.0037748e+02 4.75e-07 1.54e-01  -4.1 4.50e-03    -  1.00e+00 1.00e+00h  1
iter    objective    inf_pr   inf_du lg(mu)  ||d||  lg(rg) alpha_du alpha_pr  ls
 290  2.0042606e+02 7.94e-07 9.99e+02  -4.0 9.85e-03    -  1.00e+00 5.00e-01f  2
 291  2.0039052e+02 5.41e-07 7.13e+02  -4.1 1.27e-02    -  1.00e+00 5.00e-01h  2
 292  2.0038446e+02 8.30e-07 6.24e+02  -4.1 5.18e-02    -  1.00e+00 1.25e-01f  4
 293  2.0037945e+02 6.17e-07 5.46e+02  -4.1 3.13e-02    -  1.00e+00 1.25e-01h  4
 294  2.0038850e+02 2.68e-08 1.16e-01  -4.1 1.20e-02    -  1.00e+00 1.00e+00H  1
 295  2.0046471e+02 2.86e-06 1.24e-01  -4.0 9.31e-03    -  1.00e+00 1.00e+00f  1
 296  2.0044391e+02 2.22e-06 1.49e+03  -4.1 7.43e-03    -  1.00e+00 2.50e-01h  3
 297  2.0038001e+02 1.09e-07 3.07e-02  -4.1 2.17e-03    -  1.00e+00 1.00e+00h  1
 298  2.0046616e+02 1.65e-07 1.44e-01  -4.0 1.73e-03    -  1.00e+00 1.00e+00f  1
 299  2.0037466e+02 1.25e-07 2.03e-02  -4.1 1.41e-03    -  1.00e+00 1.00e+00f  1
iter    objective    inf_pr   inf_du lg(mu)  ||d||  lg(rg) alpha_du alpha_pr  ls
 300  2.0046061e+02 2.79e-08 2.07e-02  -4.0 7.56e-04    -  1.00e+00 1.00e+00f  1
 301  2.0037324e+02 8.30e-08 9.58e-02  -4.1 1.02e-03    -  1.00e+00 1.00e+00f  1
 302  2.0046322e+02 6.97e-08 1.91e-02  -4.0 9.80e-04    -  1.00e+00 1.00e+00f  1
 303  2.0037218e+02 4.61e-08 2.74e-02  -4.1 9.77e-04    -  1.00e+00 1.00e+00f  1
 304  2.0046499e+02 1.42e-07 8.70e-02  -4.0 1.80e-03    -  1.00e+00 1.00e+00f  1
 305  2.0037137e+02 1.31e-07 5.41e-02  -4.1 1.37e-03    -  1.00e+00 1.00e+00f  1
 306  2.0046617e+02 8.42e-08 8.95e-02  -4.0 1.17e-03    -  1.00e+00 1.00e+00f  1
 307  2.0037142e+02 7.88e-08 5.58e-02  -4.1 1.05e-03    -  1.00e+00 1.00e+00f  1
 308  2.0037023e+02 7.07e-08 7.20e-02  -4.1 8.34e-04    -  1.00e+00 1.00e+00h  1
 309  2.0046325e+02 6.51e-08 1.38e-02  -4.0 1.17e-03    -  1.00e+00 1.00e+00f  1
iter    objective    inf_pr   inf_du lg(mu)  ||d||  lg(rg) alpha_du alpha_pr  ls
 310  2.0037113e+02 5.74e-08 2.53e-02  -4.1 1.06e-03    -  1.00e+00 1.00e+00f  1
 311  2.0037039e+02 3.08e-10 3.32e-02  -4.1 1.64e-03    -  1.00e+00 1.00e+00H  1
 312  2.0046370e+02 1.14e-07 3.48e-02  -4.0 1.34e-03    -  1.00e+00 1.00e+00f  1
 313  2.0037034e+02 5.82e-08 2.65e-02  -4.1 1.21e-03    -  1.00e+00 1.00e+00f  1
 314  2.0037229e+02 3.03e-10 3.01e-02  -4.1 3.88e-03    -  1.00e+00 1.00e+00H  1
 315  2.0036941e+02 1.15e-10 2.83e-02  -4.1 3.38e-03    -  1.00e+00 1.00e+00F  1
 316  2.0041919e+02 5.65e-07 1.00e+03  -4.0 7.15e-03    -  1.00e+00 5.00e-01f  2
 317  2.0034844e+02 2.47e-07 2.32e-02  -4.1 2.54e-03    -  1.00e+00 1.00e+00h  1
 318  2.0046242e+02 6.02e-08 3.24e-02  -4.0 1.38e-03    -  1.00e+00 1.00e+00f  1
 319  2.0037240e+02 2.86e-07 1.26e-01  -4.1 4.49e-03    -  1.00e+00 1.00e+00f  1
iter    objective    inf_pr   inf_du lg(mu)  ||d||  lg(rg) alpha_du alpha_pr  ls
 320  2.0038054e+02 4.43e-09 5.88e-02  -4.1 1.44e-02    -  1.00e+00 1.00e+00H  1
 321  2.0037801e+02 2.50e-07 3.44e+00  -4.1 1.64e-02    -  1.00e+00 1.25e-01f  4
 322  2.0036932e+02 1.94e-06 1.43e-01  -4.1 1.11e-02    -  1.00e+00 1.00e+00f  1
 323  2.0036955e+02 1.65e-06 3.00e+00  -4.1 2.48e-02    -  1.00e+00 1.25e-01h  4
 324  2.0039818e+02 1.41e-09 9.58e-02  -4.1 3.83e-03    -  1.00e+00 1.00e+00H  1
 325  2.0036598e+02 8.46e-07 1.74e-02  -4.1 4.11e-03    -  1.00e+00 1.00e+00f  1
 326  2.0036705e+02 7.94e-09 9.14e-03  -4.1 1.03e-03    -  1.00e+00 1.00e+00h  1
 327  2.0046264e+02 2.78e-07 1.73e-01  -4.0 1.05e-02    -  1.00e+00 1.00e+00f  1
 328  2.0046135e+02 2.72e-07 1.97e+03  -4.1 1.18e-01    -  1.00e+00 1.33e-02h  7
 329  2.0037292e+02 6.51e-07 2.11e-01  -4.1 3.43e-03    -  1.00e+00 1.00e+00f  1
iter    objective    inf_pr   inf_du lg(mu)  ||d||  lg(rg) alpha_du alpha_pr  ls
 330  2.0036686e+02 3.17e-07 1.72e-01  -4.1 3.61e-03    -  1.00e+00 1.00e+00h  1
 331  2.0037312e+02 1.16e-08 3.20e-02  -4.1 7.53e-03    -  1.00e+00 1.00e+00H  1
 332  2.0036996e+02 2.54e-07 1.56e+00  -4.1 8.56e-03    -  1.00e+00 5.00e-01f  2
 333  2.0036842e+02 2.71e-07 4.11e+00  -4.1 5.71e-02    -  1.00e+00 6.25e-02f  5
 334  2.0036765e+02 3.19e-07 4.75e+00  -4.1 9.65e-02    -  8.91e-01 3.12e-02f  6
 335  2.0036687e+02 3.41e-07 2.37e+00  -4.1 3.35e-02    -  1.00e+00 5.87e-02h  4
 336  2.0040356e+02 2.43e-08 9.39e-02  -4.1 8.43e-03    -  1.00e+00 1.00e+00H  1
 337  2.0036557e+02 1.99e-06 6.40e-02  -4.1 7.21e-03    -  1.00e+00 1.00e+00f  1
 338  2.0036580e+02 1.50e-06 2.21e+00  -4.1 3.17e-03    -  1.00e+00 2.50e-01h  3
 339  2.0036535e+02 5.63e-09 2.13e-03  -4.1 3.22e-04    -  1.00e+00 1.00e+00h  1
iter    objective    inf_pr   inf_du lg(mu)  ||d||  lg(rg) alpha_du alpha_pr  ls
 340  2.0045211e+02 3.50e-08 2.96e-02  -4.0 7.44e-04    -  1.00e+00 1.00e+00f  1
 341  2.0036731e+02 6.55e-08 3.50e-02  -4.1 8.75e-04    -  1.00e+00 1.00e+00f  1
 342  2.0036542e+02 2.50e-08 4.24e-02  -4.1 6.99e-04    -  1.00e+00 1.00e+00h  1
 343  2.0036563e+02 1.99e-08 4.57e-02  -4.1 6.47e-04    -  1.00e+00 1.00e+00h  1
 344  2.0036565e+02 1.09e-08 1.04e-02  -4.1 5.83e-04    -  1.00e+00 1.00e+00h  1
 345  2.0036596e+02 1.94e-09 4.96e-03  -4.1 2.22e-04    -  1.00e+00 1.00e+00h  1
 346  2.0045864e+02 4.11e-08 2.76e-02  -4.0 1.06e-03    -  1.00e+00 1.00e+00f  1
 347  2.0036647e+02 3.10e-07 1.39e-01  -4.1 4.37e-03    -  1.00e+00 1.00e+00f  1
 348  2.0046230e+02 8.23e-08 7.63e-01  -4.1 2.02e-02    -  1.00e+00 1.00e+00H  1
 349  2.0037695e+02 4.77e-08 3.06e-01  -4.1 1.45e-02    -  1.00e+00 1.00e+00F  1
iter    objective    inf_pr   inf_du lg(mu)  ||d||  lg(rg) alpha_du alpha_pr  ls
 350  2.0036959e+02 3.68e-07 4.21e+00  -4.1 3.39e-02    -  1.00e+00 9.57e-02f  4
 351  2.0036893e+02 3.84e-07 7.86e-01  -4.1 7.41e-03    -  1.00e+00 2.50e-01h  3
 352  2.0037056e+02 4.58e-10 4.72e-02  -4.1 2.81e-03    -  1.00e+00 1.00e+00H  1
 353  2.0036925e+02 1.57e-07 1.02e+00  -4.1 5.72e-03    -  1.00e+00 5.00e-01f  2
 354  2.0036378e+02 2.05e-07 6.23e-02  -4.1 1.47e-03    -  1.00e+00 1.00e+00h  1
 355  2.0045436e+02 1.23e-07 9.13e-02  -4.0 1.71e-03    -  1.00e+00 1.00e+00f  1
 356  2.0036632e+02 1.12e-07 5.73e-02  -4.1 1.12e-03    -  1.00e+00 1.00e+00f  1
 357  2.0036657e+02 1.03e-09 2.87e-02  -4.1 1.80e-03    -  1.00e+00 1.00e+00H  1
 358  2.0036492e+02 1.47e-07 2.30e-02  -4.1 1.64e-03    -  1.00e+00 1.00e+00f  1
 359  2.0045705e+02 5.08e-08 5.94e-02  -4.0 1.19e-03    -  1.00e+00 1.00e+00f  1
iter    objective    inf_pr   inf_du lg(mu)  ||d||  lg(rg) alpha_du alpha_pr  ls
 360  2.0036885e+02 1.56e-07 1.29e-01  -4.1 1.56e-03    -  1.00e+00 1.00e+00f  1
 361  2.0036424e+02 1.14e-07 2.00e-02  -4.1 1.26e-03    -  1.00e+00 1.00e+00h  1
 362  2.0045746e+02 4.99e-08 2.12e-02  -4.0 1.13e-03    -  1.00e+00 1.00e+00f  1
 363  2.0036504e+02 1.27e-07 5.70e-02  -4.1 1.12e-03    -  1.00e+00 1.00e+00f  1
 364  2.0036393e+02 3.66e-08 4.26e-02  -4.1 7.54e-04    -  1.00e+00 1.00e+00h  1
 365  2.0045815e+02 6.38e-08 1.96e-02  -4.0 1.30e-03    -  1.00e+00 1.00e+00f  1
 366  2.0036762e+02 2.77e-07 1.15e-01  -4.1 1.69e-03    -  1.00e+00 1.00e+00f  1
 367  2.0036396e+02 1.80e-07 2.50e-02  -4.1 1.35e-03    -  1.00e+00 1.00e+00h  1
 368  2.0036445e+02 2.16e-09 2.97e-03  -4.1 1.46e-04    -  1.00e+00 1.00e+00h  1
 369  2.0045757e+02 4.89e-08 1.41e-02  -4.0 1.14e-03    -  1.00e+00 1.00e+00f  1
iter    objective    inf_pr   inf_du lg(mu)  ||d||  lg(rg) alpha_du alpha_pr  ls
 370  2.0036471e+02 6.55e-08 3.20e-02  -4.1 1.35e-03    -  1.00e+00 1.00e+00f  1
 371  2.0036345e+02 7.45e-08 3.36e-02  -4.1 1.51e-03    -  1.00e+00 1.00e+00h  1
 372  2.0045853e+02 7.54e-08 4.80e-02  -4.0 1.27e-03    -  1.00e+00 1.00e+00f  1
 373  2.0036622e+02 2.24e-07 9.36e-02  -4.1 2.83e-03    -  1.00e+00 1.00e+00f  1
 374  2.0036435e+02 9.66e-08 6.63e-02  -4.1 1.31e-03    -  1.00e+00 1.00e+00h  1
 375  2.0036390e+02 6.47e-08 7.36e-02  -4.1 1.72e-03    -  1.00e+00 1.00e+00h  1
 376  2.0036345e+02 2.66e-08 3.15e-03  -4.1 8.17e-04    -  1.00e+00 1.00e+00h  1
 377  2.0045700e+02 3.61e-08 3.45e-02  -4.0 1.16e-03    -  1.00e+00 1.00e+00f  1
 378  2.0036544e+02 1.43e-07 9.69e-02  -4.1 1.62e-03    -  1.00e+00 1.00e+00f  1
 379  2.0036378e+02 1.34e-07 2.41e-02  -4.1 1.25e-03    -  1.00e+00 1.00e+00h  1
iter    objective    inf_pr   inf_du lg(mu)  ||d||  lg(rg) alpha_du alpha_pr  ls
 380  2.0036386e+02 2.84e-09 9.63e-03  -4.1 4.29e-04    -  1.00e+00 1.00e+00h  1
 381  2.0045735e+02 2.68e-08 8.93e-03  -4.0 1.16e-03    -  1.00e+00 1.00e+00f  1
 382  2.0036382e+02 4.24e-08 4.41e-02  -4.1 1.08e-03    -  1.00e+00 1.00e+00f  1
 383  2.0036311e+02 4.78e-08 8.25e-02  -4.1 1.06e-03    -  1.00e+00 1.00e+00h  1
 384  2.0045778e+02 1.51e-07 3.46e-02  -4.0 2.07e-03    -  1.00e+00 1.00e+00f  1
 385  2.0036343e+02 1.08e-07 6.34e-02  -4.1 1.25e-03    -  1.00e+00 1.00e+00f  1
 386  2.0036292e+02 3.96e-08 4.40e-02  -4.1 1.24e-03    -  1.00e+00 1.00e+00h  1
 387  2.0045826e+02 5.94e-08 5.53e-02  -4.0 1.27e-03    -  1.00e+00 1.00e+00f  1
 388  2.0036628e+02 1.36e-07 1.12e-01  -4.1 1.62e-03    -  1.00e+00 1.00e+00f  1
 389  2.0036338e+02 3.25e-08 4.16e-02  -4.1 1.01e-03    -  1.00e+00 1.00e+00h  1
iter    objective    inf_pr   inf_du lg(mu)  ||d||  lg(rg) alpha_du alpha_pr  ls
 390  2.0036376e+02 2.46e-08 5.28e-03  -4.1 4.14e-04    -  1.00e+00 1.00e+00h  1
 391  2.0045736e+02 4.07e-08 2.96e-02  -4.0 1.18e-03    -  1.00e+00 1.00e+00f  1
 392  2.0036434e+02 5.91e-08 4.09e-02  -4.1 1.29e-03    -  1.00e+00 1.00e+00f  1
 393  2.0036294e+02 9.81e-08 5.74e-02  -4.1 1.37e-03    -  1.00e+00 1.00e+00h  1
 394  2.0036345e+02 3.92e-08 2.29e-02  -4.1 6.91e-04    -  1.00e+00 1.00e+00h  1
 395  2.0036385e+02 9.66e-09 3.30e-02  -4.1 3.40e-04    -  1.00e+00 1.00e+00h  1
 396  2.0036341e+02 3.73e-09 1.34e-03  -4.1 2.22e-04    -  1.00e+00 1.00e+00h  1
 397  2.0045718e+02 3.31e-08 9.69e-03  -4.0 1.09e-03    -  1.00e+00 1.00e+00f  1
 398  2.0036515e+02 1.01e-07 1.19e-01  -4.1 2.23e-03    -  1.00e+00 1.00e+00f  1
 399  2.0036295e+02 2.12e-08 3.62e-02  -4.1 1.37e-03    -  1.00e+00 1.00e+00h  1
iter    objective    inf_pr   inf_du lg(mu)  ||d||  lg(rg) alpha_du alpha_pr  ls
 400  2.0036332e+02 6.72e-09 6.88e-03  -4.1 2.96e-04    -  1.00e+00 1.00e+00h  1
 401  2.0045732e+02 4.22e-08 7.90e-03  -4.0 1.17e-03    -  1.00e+00 1.00e+00f  1
 402  2.0036386e+02 3.94e-07 8.59e-02  -4.1 2.70e-03    -  1.00e+00 1.00e+00f  1
 403  2.0036293e+02 2.09e-07 3.81e-02  -4.1 1.49e-03    -  1.00e+00 1.00e+00h  1
 404  2.0036408e+02 2.49e-08 6.42e-02  -4.1 7.11e-04    -  1.00e+00 1.00e+00h  1
 405  2.0036305e+02 1.34e-08 1.18e-02  -4.1 5.00e-04    -  1.00e+00 1.00e+00h  1
 406  2.0045707e+02 3.31e-08 7.83e-03  -4.0 1.15e-03    -  1.00e+00 1.00e+00f  1
 407  2.0036977e+02 3.69e-07 2.39e-01  -4.1 2.97e-03    -  1.00e+00 1.00e+00f  1
 408  2.0036290e+02 2.94e-07 1.76e-02  -4.1 2.61e-03    -  1.00e+00 1.00e+00h  1
 409  2.0045780e+02 5.04e-08 4.74e-02  -4.0 1.53e-03    -  1.00e+00 1.00e+00f  1
iter    objective    inf_pr   inf_du lg(mu)  ||d||  lg(rg) alpha_du alpha_pr  ls
 410  2.0036334e+02 1.23e-07 4.47e-02  -4.1 1.49e-03    -  1.00e+00 1.00e+00f  1
 411  2.0036529e+02 8.67e-11 4.48e-02  -4.1 1.91e-03    -  1.00e+00 1.00e+00H  1
 412  2.0036295e+02 5.71e-08 1.09e-02  -4.1 1.59e-03    -  1.00e+00 1.00e+00f  1
 413  2.0036298e+02 6.25e-11 8.67e-04  -4.1 3.91e-05    -  1.00e+00 1.00e+00h  1

Number of Iterations....: 413

                                   (scaled)                 (unscaled)
Objective...............:   7.6055820505424592e+01    2.0036297999118599e+02
Dual infeasibility......:   8.6696687055789513e-04    2.2839549239525086e-03
Constraint violation....:   6.2459692985276916e-11    6.2459692985276916e-11
Variable bound violation:   0.0000000000000000e+00    0.0000000000000000e+00
Complementarity.........:   8.0029952300631556e-05    2.1083251255389886e-04
Overall NLP error.......:   8.6696687055789513e-04    2.2839549239525086e-03


Number of objective function evaluations             = 828
Number of objective gradient evaluations             = 414
Number of equality constraint evaluations            = 828
Number of inequality constraint evaluations          = 828
Number of equality constraint Jacobian evaluations   = 414
Number of inequality constraint Jacobian evaluations = 414
Number of Lagrangian Hessian evaluations             = 0
Total seconds in IPOPT                               = 154.095

EXIT: Optimal Solution Found.
